db/inputs/2772719077288453221430952186993214930940.smt2
(set-logic QF_FP)
(declare-const x0 (_ FloatingPoint 8 24))
(declare-const x1 (_ FloatingPoint 8 24))
(declare-const x2 (_ FloatingPoint 8 24))
(declare-const x3 (_ FloatingPoint 8 24))
(declare-const x4 (_ FloatingPoint 8 24))
(declare-const x5 (_ FloatingPoint 8 24))
(declare-const x6 (_ FloatingPoint 8 24))
(assert (fp.lt (fp.add RNE (fp.mul RNE (fp.div RNE x3 x3) (fp.add RNE x2 x0)) (fp.neg (fp.add RNE x0 x6))) (fp.mul RNE (fp.add RNE (fp.sub RNE x6 x2) (fp.div RNE x6 x3)) (fp.sub RNE (fp.mul RNE x4 x2) (fp.sub RNE x4 x1)))))
(assert (fp.gt (fp.neg (fp.mul RNE (fp.mul RNE x5 x4) (fp.sub RNE x1 x5))) (fp.neg (fp.mul RNE (fp.neg x5) (fp.div RNE x2 x6)))))
(check-sat)
