db/data/2772719077288453221430952186993214930940.z3.out
sat
-------------------
31.057512287
